10	5
0	5	3	2	5	8	1
1	2	9	7
2	1	10
3	1	11
4	2	6	9
5	1	4
6	1	11
7	1	11
8	1	11
9	1	11
10	1	11
11	0
0	0	0	0	0	0	0
1	7	1	5	2	1	3
2	4	5	1	2	1	5
3	10	3	2	1	1	1
4	8	4	4	3	5	1
5	5	1	1	2	2	2
6	4	5	1	4	1	5
7	6	3	4	4	5	3
8	8	4	3	3	2	3
9	3	5	1	5	5	1
10	10	1	5	4	3	3
11	0	0	0	0	0	0
8	8	7	6	8
